p cnf 42 452 
1 0
2 0
35 0
-14 0
20 0
11 0
3 0
-23 0
6 19 0
-31 -27 0
29 12 0
-21 -32 0
5 34 18 0
-8 -18 0
26 42 24 0
-13 -24 0
15 22 0
-15 -22 0
-22 -15 0
-17 0
-30 0
37 0
25 0
-16 0
39 0
-38 0
7 0
-6 -29 17 17 28 -1 0
-6 -29 17 17 -28 1 0
-6 -12 17 16 28 -1 0
-6 -12 17 16 -28 1 0
-19 -29 16 17 28 -1 0
-19 -29 16 17 -28 1 0
-19 -12 16 16 28 -1 0
-19 -12 16 16 -28 1 0
-6 -29 17 -17 28 -2 0
-6 -29 17 -17 -28 2 0
-6 -12 17 -16 28 -2 0
-6 -12 17 -16 -28 2 0
-19 -29 16 -17 28 -2 0
-19 -29 16 -17 -28 2 0
-19 -12 16 -16 28 -2 0
-19 -12 16 -16 -28 2 0
-6 -29 -17 17 28 -35 0
-6 -29 -17 17 -28 35 0
-6 -12 -17 16 28 -35 0
-6 -12 -17 16 -28 35 0
-19 -29 -16 17 28 -35 0
-19 -29 -16 17 -28 35 0
-19 -12 -16 16 28 -35 0
-19 -12 -16 16 -28 35 0
-6 -29 -17 -17 28 -14 0
-6 -29 -17 -17 -28 14 0
-6 -12 -17 -16 28 -14 0
-6 -12 -17 -16 -28 14 0
-19 -29 -16 -17 28 -14 0
-19 -29 -16 -17 -28 14 0
-19 -12 -16 -16 28 -14 0
-19 -12 -16 -16 -28 14 0
-6 -29 30 30 4 -1 0
-6 -29 30 30 -4 1 0
-6 -12 30 39 4 -1 0
-6 -12 30 39 -4 1 0
-19 -29 39 30 4 -1 0
-19 -29 39 30 -4 1 0
-19 -12 39 39 4 -1 0
-19 -12 39 39 -4 1 0
-6 -29 30 -30 4 -2 0
-6 -29 30 -30 -4 2 0
-6 -12 30 -39 4 -2 0
-6 -12 30 -39 -4 2 0
-19 -29 39 -30 4 -2 0
-19 -29 39 -30 -4 2 0
-19 -12 39 -39 4 -2 0
-19 -12 39 -39 -4 2 0
-6 -29 -30 30 4 -35 0
-6 -29 -30 30 -4 35 0
-6 -12 -30 39 4 -35 0
-6 -12 -30 39 -4 35 0
-19 -29 -39 30 4 -35 0
-19 -29 -39 30 -4 35 0
-19 -12 -39 39 4 -35 0
-19 -12 -39 39 -4 35 0
-6 -29 -30 -30 4 -14 0
-6 -29 -30 -30 -4 14 0
-6 -12 -30 -39 4 -14 0
-6 -12 -30 -39 -4 14 0
-19 -29 -39 -30 4 -14 0
-19 -29 -39 -30 -4 14 0
-19 -12 -39 -39 4 -14 0
-19 -12 -39 -39 -4 14 0
-6 -29 37 37 40 -1 0
-6 -29 37 37 -40 1 0
-6 -12 37 38 40 -1 0
-6 -12 37 38 -40 1 0
-19 -29 38 37 40 -1 0
-19 -29 38 37 -40 1 0
-19 -12 38 38 40 -1 0
-19 -12 38 38 -40 1 0
-6 -29 37 -37 40 -2 0
-6 -29 37 -37 -40 2 0
-6 -12 37 -38 40 -2 0
-6 -12 37 -38 -40 2 0
-19 -29 38 -37 40 -2 0
-19 -29 38 -37 -40 2 0
-19 -12 38 -38 40 -2 0
-19 -12 38 -38 -40 2 0
-6 -29 -37 37 40 -35 0
-6 -29 -37 37 -40 35 0
-6 -12 -37 38 40 -35 0
-6 -12 -37 38 -40 35 0
-19 -29 -38 37 40 -35 0
-19 -29 -38 37 -40 35 0
-19 -12 -38 38 40 -35 0
-19 -12 -38 38 -40 35 0
-6 -29 -37 -37 40 -14 0
-6 -29 -37 -37 -40 14 0
-6 -12 -37 -38 40 -14 0
-6 -12 -37 -38 -40 14 0
-19 -29 -38 -37 40 -14 0
-19 -29 -38 -37 -40 14 0
-19 -12 -38 -38 40 -14 0
-19 -12 -38 -38 -40 14 0
-6 -29 25 25 36 -1 0
-6 -29 25 25 -36 1 0
-6 -12 25 7 36 -1 0
-6 -12 25 7 -36 1 0
-19 -29 7 25 36 -1 0
-19 -29 7 25 -36 1 0
-19 -12 7 7 36 -1 0
-19 -12 7 7 -36 1 0
-6 -29 25 -25 36 -2 0
-6 -29 25 -25 -36 2 0
-6 -12 25 -7 36 -2 0
-6 -12 25 -7 -36 2 0
-19 -29 7 -25 36 -2 0
-19 -29 7 -25 -36 2 0
-19 -12 7 -7 36 -2 0
-19 -12 7 -7 -36 2 0
-6 -29 -25 25 36 -35 0
-6 -29 -25 25 -36 35 0
-6 -12 -25 7 36 -35 0
-6 -12 -25 7 -36 35 0
-19 -29 -7 25 36 -35 0
-19 -29 -7 25 -36 35 0
-19 -12 -7 7 36 -35 0
-19 -12 -7 7 -36 35 0
-6 -29 -25 -25 36 -14 0
-6 -29 -25 -25 -36 14 0
-6 -12 -25 -7 36 -14 0
-6 -12 -25 -7 -36 14 0
-19 -29 -7 -25 36 -14 0
-19 -29 -7 -25 -36 14 0
-19 -12 -7 -7 36 -14 0
-19 -12 -7 -7 -36 14 0
-5 -26 17 17 10 -20 0
-5 -26 17 17 -10 20 0
-5 -42 17 16 10 -20 0
-5 -42 17 16 -10 20 0
-5 -24 17 28 10 -20 0
-5 -24 17 28 -10 20 0
-34 -26 16 17 10 -20 0
-34 -26 16 17 -10 20 0
-34 -42 16 16 10 -20 0
-34 -42 16 16 -10 20 0
-34 -24 16 28 10 -20 0
-34 -24 16 28 -10 20 0
-18 -26 28 17 10 -20 0
-18 -26 28 17 -10 20 0
-18 -42 28 16 10 -20 0
-18 -42 28 16 -10 20 0
-18 -24 28 28 10 -20 0
-18 -24 28 28 -10 20 0
-5 -26 17 -17 10 -11 0
-5 -26 17 -17 -10 11 0
-5 -42 17 -16 10 -11 0
-5 -42 17 -16 -10 11 0
-5 -24 17 -28 10 -11 0
-5 -24 17 -28 -10 11 0
-34 -26 16 -17 10 -11 0
-34 -26 16 -17 -10 11 0
-34 -42 16 -16 10 -11 0
-34 -42 16 -16 -10 11 0
-34 -24 16 -28 10 -11 0
-34 -24 16 -28 -10 11 0
-18 -26 28 -17 10 -11 0
-18 -26 28 -17 -10 11 0
-18 -42 28 -16 10 -11 0
-18 -42 28 -16 -10 11 0
-18 -24 28 -28 10 -11 0
-18 -24 28 -28 -10 11 0
-5 -26 -17 17 10 -3 0
-5 -26 -17 17 -10 3 0
-5 -42 -17 16 10 -3 0
-5 -42 -17 16 -10 3 0
-5 -24 -17 28 10 -3 0
-5 -24 -17 28 -10 3 0
-34 -26 -16 17 10 -3 0
-34 -26 -16 17 -10 3 0
-34 -42 -16 16 10 -3 0
-34 -42 -16 16 -10 3 0
-34 -24 -16 28 10 -3 0
-34 -24 -16 28 -10 3 0
-18 -26 -28 17 10 -3 0
-18 -26 -28 17 -10 3 0
-18 -42 -28 16 10 -3 0
-18 -42 -28 16 -10 3 0
-18 -24 -28 28 10 -3 0
-18 -24 -28 28 -10 3 0
-5 -26 -17 -17 10 -23 0
-5 -26 -17 -17 -10 23 0
-5 -42 -17 -16 10 -23 0
-5 -42 -17 -16 -10 23 0
-5 -24 -17 -28 10 -23 0
-5 -24 -17 -28 -10 23 0
-34 -26 -16 -17 10 -23 0
-34 -26 -16 -17 -10 23 0
-34 -42 -16 -16 10 -23 0
-34 -42 -16 -16 -10 23 0
-34 -24 -16 -28 10 -23 0
-34 -24 -16 -28 -10 23 0
-18 -26 -28 -17 10 -23 0
-18 -26 -28 -17 -10 23 0
-18 -42 -28 -16 10 -23 0
-18 -42 -28 -16 -10 23 0
-18 -24 -28 -28 10 -23 0
-18 -24 -28 -28 -10 23 0
-5 -26 30 30 33 -20 0
-5 -26 30 30 -33 20 0
-5 -42 30 39 33 -20 0
-5 -42 30 39 -33 20 0
-5 -24 30 4 33 -20 0
-5 -24 30 4 -33 20 0
-34 -26 39 30 33 -20 0
-34 -26 39 30 -33 20 0
-34 -42 39 39 33 -20 0
-34 -42 39 39 -33 20 0
-34 -24 39 4 33 -20 0
-34 -24 39 4 -33 20 0
-18 -26 4 30 33 -20 0
-18 -26 4 30 -33 20 0
-18 -42 4 39 33 -20 0
-18 -42 4 39 -33 20 0
-18 -24 4 4 33 -20 0
-18 -24 4 4 -33 20 0
-5 -26 30 -30 33 -11 0
-5 -26 30 -30 -33 11 0
-5 -42 30 -39 33 -11 0
-5 -42 30 -39 -33 11 0
-5 -24 30 -4 33 -11 0
-5 -24 30 -4 -33 11 0
-34 -26 39 -30 33 -11 0
-34 -26 39 -30 -33 11 0
-34 -42 39 -39 33 -11 0
-34 -42 39 -39 -33 11 0
-34 -24 39 -4 33 -11 0
-34 -24 39 -4 -33 11 0
-18 -26 4 -30 33 -11 0
-18 -26 4 -30 -33 11 0
-18 -42 4 -39 33 -11 0
-18 -42 4 -39 -33 11 0
-18 -24 4 -4 33 -11 0
-18 -24 4 -4 -33 11 0
-5 -26 -30 30 33 -3 0
-5 -26 -30 30 -33 3 0
-5 -42 -30 39 33 -3 0
-5 -42 -30 39 -33 3 0
-5 -24 -30 4 33 -3 0
-5 -24 -30 4 -33 3 0
-34 -26 -39 30 33 -3 0
-34 -26 -39 30 -33 3 0
-34 -42 -39 39 33 -3 0
-34 -42 -39 39 -33 3 0
-34 -24 -39 4 33 -3 0
-34 -24 -39 4 -33 3 0
-18 -26 -4 30 33 -3 0
-18 -26 -4 30 -33 3 0
-18 -42 -4 39 33 -3 0
-18 -42 -4 39 -33 3 0
-18 -24 -4 4 33 -3 0
-18 -24 -4 4 -33 3 0
-5 -26 -30 -30 33 -23 0
-5 -26 -30 -30 -33 23 0
-5 -42 -30 -39 33 -23 0
-5 -42 -30 -39 -33 23 0
-5 -24 -30 -4 33 -23 0
-5 -24 -30 -4 -33 23 0
-34 -26 -39 -30 33 -23 0
-34 -26 -39 -30 -33 23 0
-34 -42 -39 -39 33 -23 0
-34 -42 -39 -39 -33 23 0
-34 -24 -39 -4 33 -23 0
-34 -24 -39 -4 -33 23 0
-18 -26 -4 -30 33 -23 0
-18 -26 -4 -30 -33 23 0
-18 -42 -4 -39 33 -23 0
-18 -42 -4 -39 -33 23 0
-18 -24 -4 -4 33 -23 0
-18 -24 -4 -4 -33 23 0
-5 -26 37 37 9 -20 0
-5 -26 37 37 -9 20 0
-5 -42 37 38 9 -20 0
-5 -42 37 38 -9 20 0
-5 -24 37 40 9 -20 0
-5 -24 37 40 -9 20 0
-34 -26 38 37 9 -20 0
-34 -26 38 37 -9 20 0
-34 -42 38 38 9 -20 0
-34 -42 38 38 -9 20 0
-34 -24 38 40 9 -20 0
-34 -24 38 40 -9 20 0
-18 -26 40 37 9 -20 0
-18 -26 40 37 -9 20 0
-18 -42 40 38 9 -20 0
-18 -42 40 38 -9 20 0
-18 -24 40 40 9 -20 0
-18 -24 40 40 -9 20 0
-5 -26 37 -37 9 -11 0
-5 -26 37 -37 -9 11 0
-5 -42 37 -38 9 -11 0
-5 -42 37 -38 -9 11 0
-5 -24 37 -40 9 -11 0
-5 -24 37 -40 -9 11 0
-34 -26 38 -37 9 -11 0
-34 -26 38 -37 -9 11 0
-34 -42 38 -38 9 -11 0
-34 -42 38 -38 -9 11 0
-34 -24 38 -40 9 -11 0
-34 -24 38 -40 -9 11 0
-18 -26 40 -37 9 -11 0
-18 -26 40 -37 -9 11 0
-18 -42 40 -38 9 -11 0
-18 -42 40 -38 -9 11 0
-18 -24 40 -40 9 -11 0
-18 -24 40 -40 -9 11 0
-5 -26 -37 37 9 -3 0
-5 -26 -37 37 -9 3 0
-5 -42 -37 38 9 -3 0
-5 -42 -37 38 -9 3 0
-5 -24 -37 40 9 -3 0
-5 -24 -37 40 -9 3 0
-34 -26 -38 37 9 -3 0
-34 -26 -38 37 -9 3 0
-34 -42 -38 38 9 -3 0
-34 -42 -38 38 -9 3 0
-34 -24 -38 40 9 -3 0
-34 -24 -38 40 -9 3 0
-18 -26 -40 37 9 -3 0
-18 -26 -40 37 -9 3 0
-18 -42 -40 38 9 -3 0
-18 -42 -40 38 -9 3 0
-18 -24 -40 40 9 -3 0
-18 -24 -40 40 -9 3 0
-5 -26 -37 -37 9 -23 0
-5 -26 -37 -37 -9 23 0
-5 -42 -37 -38 9 -23 0
-5 -42 -37 -38 -9 23 0
-5 -24 -37 -40 9 -23 0
-5 -24 -37 -40 -9 23 0
-34 -26 -38 -37 9 -23 0
-34 -26 -38 -37 -9 23 0
-34 -42 -38 -38 9 -23 0
-34 -42 -38 -38 -9 23 0
-34 -24 -38 -40 9 -23 0
-34 -24 -38 -40 -9 23 0
-18 -26 -40 -37 9 -23 0
-18 -26 -40 -37 -9 23 0
-18 -42 -40 -38 9 -23 0
-18 -42 -40 -38 -9 23 0
-18 -24 -40 -40 9 -23 0
-18 -24 -40 -40 -9 23 0
-5 -26 25 25 41 -20 0
-5 -26 25 25 -41 20 0
-5 -42 25 7 41 -20 0
-5 -42 25 7 -41 20 0
-5 -24 25 36 41 -20 0
-5 -24 25 36 -41 20 0
-34 -26 7 25 41 -20 0
-34 -26 7 25 -41 20 0
-34 -42 7 7 41 -20 0
-34 -42 7 7 -41 20 0
-34 -24 7 36 41 -20 0
-34 -24 7 36 -41 20 0
-18 -26 36 25 41 -20 0
-18 -26 36 25 -41 20 0
-18 -42 36 7 41 -20 0
-18 -42 36 7 -41 20 0
-18 -24 36 36 41 -20 0
-18 -24 36 36 -41 20 0
-5 -26 25 -25 41 -11 0
-5 -26 25 -25 -41 11 0
-5 -42 25 -7 41 -11 0
-5 -42 25 -7 -41 11 0
-5 -24 25 -36 41 -11 0
-5 -24 25 -36 -41 11 0
-34 -26 7 -25 41 -11 0
-34 -26 7 -25 -41 11 0
-34 -42 7 -7 41 -11 0
-34 -42 7 -7 -41 11 0
-34 -24 7 -36 41 -11 0
-34 -24 7 -36 -41 11 0
-18 -26 36 -25 41 -11 0
-18 -26 36 -25 -41 11 0
-18 -42 36 -7 41 -11 0
-18 -42 36 -7 -41 11 0
-18 -24 36 -36 41 -11 0
-18 -24 36 -36 -41 11 0
-5 -26 -25 25 41 -3 0
-5 -26 -25 25 -41 3 0
-5 -42 -25 7 41 -3 0
-5 -42 -25 7 -41 3 0
-5 -24 -25 36 41 -3 0
-5 -24 -25 36 -41 3 0
-34 -26 -7 25 41 -3 0
-34 -26 -7 25 -41 3 0
-34 -42 -7 7 41 -3 0
-34 -42 -7 7 -41 3 0
-34 -24 -7 36 41 -3 0
-34 -24 -7 36 -41 3 0
-18 -26 -36 25 41 -3 0
-18 -26 -36 25 -41 3 0
-18 -42 -36 7 41 -3 0
-18 -42 -36 7 -41 3 0
-18 -24 -36 36 41 -3 0
-18 -24 -36 36 -41 3 0
-5 -26 -25 -25 41 -23 0
-5 -26 -25 -25 -41 23 0
-5 -42 -25 -7 41 -23 0
-5 -42 -25 -7 -41 23 0
-5 -24 -25 -36 41 -23 0
-5 -24 -25 -36 -41 23 0
-34 -26 -7 -25 41 -23 0
-34 -26 -7 -25 -41 23 0
-34 -42 -7 -7 41 -23 0
-34 -42 -7 -7 -41 23 0
-34 -24 -7 -36 41 -23 0
-34 -24 -7 -36 -41 23 0
-18 -26 -36 -25 41 -23 0
-18 -26 -36 -25 -41 23 0
-18 -42 -36 -7 41 -23 0
-18 -42 -36 -7 -41 23 0
-18 -24 -36 -36 41 -23 0
-18 -24 -36 -36 -41 23 0
-15 -28 0
-15 -4 0
-15 40 0
-15 36 0
-22 -10 0
-22 -33 0
-22 9 0
-22 41 0
22 0
